sat
(:added-eqs                       974
 :arith-eq-adapter                271
 :arith-bound-propagations-lp     17
 :arith-conflicts                 81
 :arith-diseq                     22
 :arith-fixed-eqs                 11
 :arith-gcd-calls                 7
 :arith-grobner-calls             15
 :arith-grobner-conflicts         2
 :arith-horner-calls              5
 :arith-horner-cross-nested-forms 250
 :arith-lower                     321
 :arith-make-feasible             197
 :arith-max-columns               1170
 :arith-max-rows                  413
 :arith-nla-add-bounds            3
 :arith-nla-lemmas                48
 :arith-nla-propagate-bounds      24
 :arith-nla-propagate-eq          336
 :arith-nra-calls                 2
 :arith-offset-eqs                6
 :arith-patches                   7
 :arith-patches-success           7
 :arith-upper                     994
 :binary-propagations             3884
 :card2bv-rewrites                1
 :conflicts                       17
 :decisions                       1823
 :del-clause                      35
 :elim-unconstrained              3
 :final-checks                    32
 :max-memory                      107.27
 :memory                          53.91
 :mk-bool-var                     1898
 :mk-clause                       377
 :mk-clause-binary                5116
 :nlsat-conflicts                 192
 :nlsat-decisions                 5
 :nlsat-propagations              12175
 :nlsat-restarts                  1
 :nlsat-stages                    7706
 :num-allocs                      377340948
 :num-checks                      1
 :propagations                    3985
 :rlimit-count                    856375
 :sat-mk-clause-2ary              134257
 :sat-mk-clause-nary              218048
 :sat-mk-var                      100514
 :time                            0.60
 :total-time                      0.62)
